
Gurobi 9.1.2 (win64, Java) logging started Fri Nov  5 19:59:44 2021

Academic license - for non-commercial use only - expires 2022-10-30
Gurobi Optimizer version 9.1.2 build v9.1.2rc0 (win64)
Thread count: 6 physical cores, 12 logical processors, using up to 12 threads
Optimize a model with 40 rows, 400 columns and 800 nonzeros
Model fingerprint: 0xa6caa86b
Variable types: 0 continuous, 400 integer (400 binary)
Coefficient statistics:
  Matrix range     [1e+00, 1e+03]
  Objective range  [7e+01, 1e+03]
  Bounds range     [1e+00, 1e+00]
  RHS range        [1e+00, 5e+02]
Found heuristic solution: objective 5064.0000000
Presolve removed 20 rows and 337 columns
Presolve time: 0.01s
Presolved: 20 rows, 63 columns, 125 nonzeros
Variable types: 0 continuous, 63 integer (63 binary)
Presolve removed 0 rows and 3 columns
Presolved: 20 rows, 60 columns, 119 nonzeros


Root relaxation: objective 5.938000e+03, 20 iterations, 0.00 seconds

    Nodes    |    Current Node    |     Objective Bounds      |     Work
 Expl Unexpl |  Obj  Depth IntInf | Incumbent    BestBd   Gap | It/Node Time

*    0     0               0    5938.0000000 5938.00000  0.00%     -    0s

Explored 0 nodes (20 simplex iterations) in 0.02 seconds
Thread count was 12 (of 12 available processors)

Solution count 2: 5938 5064 

Optimal solution found (tolerance 1.00e-04)
Best objective 5.938000000000e+03, best bound 5.938000000000e+03, gap 0.0000%
